
Gurobi 11.0.3 (linux64) logging started Fri Apr 17 04:26:00 2026

Set parameter LogFile to value "tree/results/ctmc/ctmc_depth-4_run-2/Full MIP/LogFile_FullModel.txt"
Gurobi Optimizer version 11.0.3 build v11.0.3rc0 (linux64 - "CentOS Linux 7 (Core)")

CPU model: Intel(R) Xeon(R) Platinum 8260 CPU @ 2.40GHz, instruction set [SSE2|AVX|AVX2|AVX512]
Thread count: 96 physical cores, 192 logical processors, using up to 32 threads

Optimize a model with 230453 rows, 141919 columns and 2835765 nonzeros
Model fingerprint: 0x4f86299c
Model has 17664 general constraints
Variable types: 88714 continuous, 53205 integer (53205 binary)
Coefficient statistics:
  Matrix range     [9e-04, 1e+04]
  Objective range  [9e-04, 1e+04]
  Bounds range     [1e+00, 1e+03]
  RHS range        [1e-04, 2e+03]

User MIP start produced solution with objective -64399.4 (0.84s)
Loaded user MIP start with objective -64399.4
Processed MIP start in 1.09 seconds (0.23 work units)

Presolve removed 70672 rows and 70656 columns (presolve time = 5s) ...
Presolve added 17648 rows and 70656 columns
Presolve time: 5.22s
Presolved: 248101 rows, 212575 columns, 2977149 nonzeros
Presolved model has 70656 SOS constraint(s)
Variable types: 88714 continuous, 123861 integer (123861 binary)

Deterministic concurrent LP optimizer: primal simplex, dual simplex, and barrier
Showing barrier log only...

Root relaxation presolved: 248101 rows, 212575 columns, 2977149 nonzeros

Root barrier log...

Ordering time: 0.13s

Barrier statistics:
 Dense cols : 180
 AA' NZ     : 3.053e+06
 Factor NZ  : 1.189e+07 (roughly 300 MB of memory)
 Factor Ops : 6.146e+08 (less than 1 second per iteration)
 Threads    : 30

                  Objective                Residual
Iter       Primal          Dual         Primal    Dual     Compl     Time
   0  -1.04802171e+05  3.40153867e+09  1.10e+04 0.00e+00  7.79e+05    11s
   1  -5.24768687e+04  5.64173475e+09  1.21e+03 3.42e+01  1.70e+05    12s
   2  -3.40580992e+04  4.81865048e+09  1.22e+02 4.65e+00  2.42e+04    12s
   3  -1.56762077e+04  1.31384628e+09  1.21e+01 5.53e-01  3.55e+03    13s
   4  -1.75505628e+03  1.54211592e+08  1.20e+00 5.48e-02  3.78e+02    14s
   5  -1.74607667e+02  1.82228224e+07  1.19e-01 5.48e-03  4.15e+01    15s
   6  -1.65588975e+01  1.85838544e+06  1.21e-02 5.50e-04  4.15e+00    15s
   7  -7.54001186e-01  1.95473912e+05  1.40e-03 5.79e-05  4.36e-01    16s
   8   8.26436512e-01  2.62837370e+04  3.26e-04 7.77e-06  5.86e-02    16s
   9   9.56093281e-01  2.76371846e+03  3.23e-05 8.10e-07  6.16e-03    17s
  10   9.95583533e-01  2.77928662e+02  3.20e-06 8.12e-08  6.17e-04    17s
  11   9.99558274e-01  2.89521006e+01  3.17e-07 8.13e-09  6.23e-05    18s
  12   9.99955827e-01  3.79521353e+00  3.17e-08 8.13e-10  6.23e-06    18s
  13   9.99995582e-01  1.28213784e+00  3.15e-09 8.14e-11  6.28e-07    19s
  14   9.99999558e-01  1.02821378e+00  3.15e-10 8.14e-12  6.28e-08    20s
  15   9.99999956e-01  1.00284779e+00  3.15e-11 8.14e-13  6.33e-09    21s
  16   9.99999996e-01  1.00028478e+00  3.30e-12 8.14e-14  6.33e-10    22s
  17   1.00000000e+00  1.00002848e+00  5.97e-13 8.14e-15  6.33e-11    23s
  18   1.00000000e+00  1.00000285e+00  4.55e-13 8.14e-16  6.33e-12    24s
  19   1.00000000e+00  1.00000028e+00  4.26e-13 1.42e-14  6.33e-13    24s
  20   1.00000000e+00  1.00000003e+00  4.55e-13 8.14e-18  6.33e-14    25s
  21   1.00000000e+00  1.00000000e+00  4.41e-13 1.42e-14  6.33e-15    25s

Barrier solved model in 21 iterations and 25.47 seconds (17.00 work units)
Optimal objective 1.00000000e+00


Root crossover log...

   10643 DPushes remaining with DInf 0.0000000e+00                26s
       0 DPushes remaining with DInf 0.0000000e+00                26s

   83609 PPushes remaining with PInf 0.0000000e+00                26s
       0 PPushes remaining with PInf 0.0000000e+00                29s

  Push phase complete: Pinf 0.0000000e+00, Dinf 0.0000000e+00     29s


Root simplex log...

Iteration    Objective       Primal Inf.    Dual Inf.      Time
   83613    1.0000000e+00   1.698691e-09   0.000000e+00     30s
   83614    1.0000000e+00   0.000000e+00   0.000000e+00     30s
   83614    1.0000000e+00   0.000000e+00   0.000000e+00     31s
Concurrent spin time: 0.04s

Solved with barrier

Root relaxation: objective 1.000000e+00, 83614 iterations, 22.80 seconds (14.21 work units)
Total elapsed time = 109.59s (DegenMoves)
Total elapsed time = 110.39s (DegenMoves)

    Nodes    |    Current Node    |     Objective Bounds      |     Work
 Expl Unexpl |  Obj  Depth IntInf | Incumbent    BestBd   Gap | It/Node Time

     0     0    1.00000    0 14783 -64399.415    1.00000   100%     -  110s
     0     2    1.00000    0 14783 -64399.415    1.00000   100%     -  680s
H    1     4                    -64399.41483    1.00000   100%  4108 1024s
     3     8    1.00000    2 14779 -64399.415    1.00000   100%  1370 1025s
    31    64    1.00000    5 14773 -64399.415    1.00000   100%   134 1377s
    95   128    1.00000    7 14769 -64399.415    1.00000   100%  44.2 1948s
H   98   128                       0.5597826    1.00000  78.6%  42.9 1949s
   127   160    1.00000    8 14767    0.55978    1.00000  78.6%  33.3 1951s
   159   192    1.00000    9 14765    0.55978    1.00000  78.6%  26.8 2831s
   191   224    1.00000   10 14765    0.55978    1.00000  78.6%  22.5 2968s
   223   256    1.00000   11 14765    0.55978    1.00000  78.6%  19.6 3600s

Explored 255 nodes (91632 simplex iterations) in 3601.33 seconds (4728.21 work units)
Thread count was 32 (of 192 available processors)

Solution count 3: 0.559783 -64399.4 -64399.4 

Time limit reached
Best objective 5.597826086962e-01, best bound 1.000000000000e+00, gap 78.6408%

User-callback calls 1844529, time in user-callback 9.91 sec
